data/CVRPLIB/Vrp-Set-XML100/instances/XML100_2112_10.vrp
NAME : XML100_2112_10
COMMENT : Generated by Queiroga, Sadykov, Uchoa, and Vidal (2021)
TYPE : CVRP
DIMENSION : 101
EDGE_WEIGHT_TYPE : EUC_2D
CAPACITY : 7
NODE_COORD_SECTION
1    500  500 
2    55   915 
3    508  896 
4    988  598 
5    888  835 
6    775  430 
7    315  628 
8    301  238 
9    459  982 
10   51   931 
11   114  447 
12   237  416 
13   179  881 
14   66   450 
15   362  332 
16   99   838 
17   873  895 
18   514  270 
19   670  120 
20   815  684 
21   561  403 
22   227  599 
23   430  231 
24   52   60  
25   10   448 
26   990  152 
27   316  709 
28   483  472 
29   696  497 
30   35   695 
31   169  611 
32   285  341 
33   856  569 
34   14   311 
35   375  25  
36   715  135 
37   603  974 
38   240  260 
39   712  489 
40   681  440 
41   799  326 
42   295  448 
43   120  503 
44   33   119 
45   411  331 
46   701  344 
47   904  860 
48   549  863 
49   609  238 
50   46   851 
51   147  747 
52   765  70  
53   666  792 
54   738  240 
55   975  363 
56   322  994 
57   348  204 
58   112  364 
59   773  208 
60   686  344 
61   847  929 
62   33   723 
63   742  535 
64   693  272 
65   741  668 
66   900  224 
67   400  293 
68   698  890 
69   836  36  
70   447  113 
71   316  469 
72   75   185 
73   435  875 
74   312  178 
75   43   348 
76   570  138 
77   557  849 
78   97   892 
79   229  919 
80   550  36  
81   270  286 
82   3    498 
83   91   593 
84   848  495 
85   27   933 
86   213  241 
87   754  885 
88   392  567 
89   993  602 
90   165  147 
91   337  855 
92   6    503 
93   560  588 
94   480  641 
95   736  203 
96   904  538 
97   179  966 
98   290  373 
99   504  397 
100  862  787 
101  502  956 
DEMAND_SECTION
1    0   
2    1   
3    1   
4    1   
5    1   
6    1   
7    1   
8    1   
9    1   
10   1   
11   1   
12   1   
13   1   
14   1   
15   1   
16   1   
17   1   
18   1   
19   1   
20   1   
21   1   
22   1   
23   1   
24   1   
25   1   
26   1   
27   1   
28   1   
29   1   
30   1   
31   1   
32   1   
33   1   
34   1   
35   1   
36   1   
37   1   
38   1   
39   1   
40   1   
41   1   
42   1   
43   1   
44   1   
45   1   
46   1   
47   1   
48   1   
49   1   
50   1   
51   1   
52   1   
53   1   
54   1   
55   1   
56   1   
57   1   
58   1   
59   1   
60   1   
61   1   
62   1   
63   1   
64   1   
65   1   
66   1   
67   1   
68   1   
69   1   
70   1   
71   1   
72   1   
73   1   
74   1   
75   1   
76   1   
77   1   
78   1   
79   1   
80   1   
81   1   
82   1   
83   1   
84   1   
85   1   
86   1   
87   1   
88   1   
89   1   
90   1   
91   1   
92   1   
93   1   
94   1   
95   1   
96   1   
97   1   
98   1   
99   1   
100  1   
101  1   
DEPOT_SECTION
1
-1
EOF
