data/CVRPLIB/Vrp-Set-XML100/solutions/XML100_2112_10.sol
Route #1: 57 74 33 71 43 23 89
Route #2: 12 77 1 9 84 49 15
Route #3: 42 91 81 24 13 10 11
Route #4: 87 70 41 97 31 14 44
Route #5: 80 37 85 7 73 56 66
Route #6: 67 86 60 16 46 4 99
Route #7: 21 30 82 29 61 50 6
Route #8: 39 5 54 88 3 95 83
Route #9: 17 22 69 34 79 75 48
Route #10: 59 45 53 58 94 63 20
Route #11: 93 72 55 96 78 90 26
Route #12: 98 27
Route #13: 76 47 2 8 100 36 52
Route #14: 40 65 25 68 51 35 18
Route #15: 92 64 19 32 62 38 28
Cost 16167
